135
100000
23646
28654
1772
42068
29871
16929
21787
11156
2014
15688
49922
12803
13389
12115
39385
35651
32604
27001
16364
14412
18841
5547
43071
14627
30149
1344
1165
42447
23116
49670
22393
24621
18149
7691
19056
6431
46878
48658
29690
5675
176
9348
15073
3326
29610
15455
39250
753
16846
19374
31377
11703
16674
32448
24734
12258
36254
45704
43703
37214
22890
12697
25917
47113
106
30944
40664
32263
5831
4228
38104
9443
16023
43224
5700
13570
6075
1839
27496
24449
32334
38556
26456
8066
7718
18641
25184
16880
48827
32972
37180
22323
35637
1065
7419
23936
22853
6341
6163
28283
3559
15
47812
15252
39044
36145
48871
4765
1578
12905
38288
25221
27369
15186
37158
35283
28835
7949
40183
7365
37862
4188
3710
11857
42402
8594
22882
7657
48661
4869
5850
23055
19805
44558
38127
